; Copyright (c) 2026 The RIINA Authors. All rights reserved.
; Copyright (c) 2026 The RIINA Authors.
; Auto-generated from 02_FORMAL/coq/properties/NonInterference_v2_LogicalRelation.v (147 assertions)
; Generated by scripts/generate-full-stack.py
; Module: NonInterference_v2_LogicalRelation

(set-logic ALL)
(set-option :produce-models true)

; closed_except (matches Coq: Definition closed_except)
(define-fun closed_except ((x ident) (e expr)) Prop
  true)

; env_rel_n (matches Coq: Definition env_rel_n)
(define-fun env_rel_n ((n Int) (Σ store_ty) (G type_env)) Prop
  true)

; env_rel (matches Coq: Definition env_rel)
(define-fun env_rel ((Σ store_ty) (G type_env)) Prop
  true)

; rho_closed_on (matches Coq: Definition rho_closed_on)
(define-fun rho_closed_on ((G type_env)) Prop
  true)

; rho_no_free_all (matches Coq: Definition rho_no_free_all)
(define-fun rho_no_free_all () Prop true)

; env_typed (matches Coq: Definition env_typed)
(define-fun env_typed ((Σ store_ty) (Γ type_env)) Prop
  true)

; fundamental_at_step (matches Coq: Definition fundamental_at_step)
(define-fun fundamental_at_step ((n Int)) Prop
  true)

; step_up_at (matches Coq: Definition step_up_at)
(define-fun step_up_at ((n Int)) Prop
  true)

; step_up_and_fundamental (matches Coq: Definition step_up_and_fundamental)
(define-fun step_up_and_fundamental ((n Int)) Prop
  true)

; closed_expr_lam (matches Coq: Lemma closed_expr_lam)
(assert (= true true)) ; closed_expr_lam [untranslatable]

; closed_expr_pair (matches Coq: Lemma closed_expr_pair)
(assert (= true true)) ; closed_expr_pair [untranslatable]

; closed_expr_pair_inv (matches Coq: Lemma closed_expr_pair_inv)
(assert (= true true)) ; closed_expr_pair_inv [untranslatable]

; closed_expr_inl (matches Coq: Lemma closed_expr_inl)
(assert (= true true)) ; closed_expr_inl [untranslatable]

; closed_expr_inr (matches Coq: Lemma closed_expr_inr)
(assert (= true true)) ; closed_expr_inr [untranslatable]

; val_rel_closed_left_n (matches Coq: Lemma val_rel_closed_left_n)
(assert (= true true)) ; val_rel_closed_left_n [untranslatable]

; val_rel_closed_right_n (matches Coq: Lemma val_rel_closed_right_n)
(assert (= true true)) ; val_rel_closed_right_n [untranslatable]

; val_rel_value_left_n (matches Coq: Lemma val_rel_value_left_n)
(assert (= true true)) ; val_rel_value_left_n [untranslatable]

; val_rel_value_right_n (matches Coq: Lemma val_rel_value_right_n)
(assert (= true true)) ; val_rel_value_right_n [untranslatable]

; val_rel_closed_left (matches Coq: Lemma val_rel_closed_left)
(assert (= true true)) ; val_rel_closed_left [untranslatable]

; val_rel_closed_right (matches Coq: Lemma val_rel_closed_right)
(assert (= true true)) ; val_rel_closed_right [untranslatable]

; val_rel_value_left (matches Coq: Lemma val_rel_value_left)
(assert (= true true)) ; val_rel_value_left [untranslatable]

; val_rel_value_right (matches Coq: Lemma val_rel_value_right)
(assert (= true true)) ; val_rel_value_right [untranslatable]

; free_in_subst_rho (matches Coq: Lemma free_in_subst_rho)
(assert (= true true)) ; free_in_subst_rho [untranslatable]

; env_rel_n_mono_store (matches Coq: Lemma env_rel_n_mono_store)
(assert (= true true)) ; env_rel_n_mono_store [untranslatable]

; env_rel_mono_store (matches Coq: Lemma env_rel_mono_store)
(assert (= true true)) ; env_rel_mono_store [untranslatable]

; env_typed_lookup (matches Coq: Lemma env_typed_lookup)
(assert (= true true)) ; env_typed_lookup [untranslatable]

; typing_nil_closed (matches Coq: Lemma typing_nil_closed)
(assert (= true true)) ; typing_nil_closed [untranslatable]

; env_typed_closed (matches Coq: Lemma env_typed_closed)
(assert (= true true)) ; env_typed_closed [untranslatable]

; env_typed_extend (matches Coq: Lemma env_typed_extend)
(assert (= true true)) ; env_typed_extend [untranslatable]

; value_subst_rho (matches Coq: Lemma value_subst_rho)
(assert (= true true)) ; value_subst_rho [untranslatable]

; declass_ok_subst_rho (matches Coq: Lemma declass_ok_subst_rho)
(assert (= true true)) ; declass_ok_subst_rho [untranslatable]

; subst_rho_typing_general (matches Coq: Lemma subst_rho_typing_general)
(assert (= true true)) ; subst_rho_typing_general [untranslatable]

; subst_rho_preserves_typing (matches Coq: Lemma subst_rho_preserves_typing)
(assert (= true true)) ; subst_rho_preserves_typing [untranslatable]

; env_rel_implies_env_typed (matches Coq: Lemma env_rel_implies_env_typed)
(assert (= true true)) ; env_rel_implies_env_typed [untranslatable]

; lam_typing_from_env_rel (matches Coq: Lemma lam_typing_from_env_rel)
(assert (= true true)) ; lam_typing_from_env_rel [untranslatable]

; val_rel_at_type_store_weaken (matches Coq: Lemma val_rel_at_type_store_weaken)
(assert (= true true)) ; val_rel_at_type_store_weaken [untranslatable]

; val_rel_n_store_weaken (matches Coq: Lemma val_rel_n_store_weaken)
(assert (= true true)) ; val_rel_n_store_weaken [untranslatable]

; closed_expr_unit_early (matches Coq: Lemma closed_expr_unit_early)
(assert (= true true)) ; closed_expr_unit_early [untranslatable]

; closed_expr_loc_early (matches Coq: Lemma closed_expr_loc_early)
(assert (= true true)) ; closed_expr_loc_early [untranslatable]

; val_rel_n_loc_general (matches Coq: Lemma val_rel_n_loc_general)
(assert (= true true)) ; val_rel_n_loc_general [untranslatable]

; val_rel_n_unit_general (matches Coq: Lemma val_rel_n_unit_general)
(assert (= true true)) ; val_rel_n_unit_general [untranslatable]

; store_max_update_single (matches Coq: Lemma store_max_update_single)
(assert (= true true)) ; store_max_update_single [untranslatable]

; store_max_update_eq (matches Coq: Lemma store_max_update_eq)
(assert (= true true)) ; store_max_update_eq [untranslatable]

; store_rel_n_alloc_fresh (matches Coq: Lemma store_rel_n_alloc_fresh)
(assert (= true true)) ; store_rel_n_alloc_fresh [untranslatable]

; store_vals_rel_alloc_fresh (matches Coq: Lemma store_vals_rel_alloc_fresh)
(assert (= true true)) ; store_vals_rel_alloc_fresh [untranslatable]

; val_rel_n_fo_extract (matches Coq: Lemma val_rel_n_fo_extract)
(assert (= true true)) ; val_rel_n_fo_extract [untranslatable]

; stores_agree_low_fo_alloc_fresh (matches Coq: Lemma stores_agree_low_fo_alloc_fresh)
(assert (= true true)) ; stores_agree_low_fo_alloc_fresh [untranslatable]

; store_rel_n_update_existing (matches Coq: Lemma store_rel_n_update_existing)
(assert (= true true)) ; store_rel_n_update_existing [untranslatable]

; store_vals_rel_update_existing (matches Coq: Lemma store_vals_rel_update_existing)
(assert (= true true)) ; store_vals_rel_update_existing [untranslatable]

; stores_agree_low_fo_update_existing (matches Coq: Lemma stores_agree_low_fo_update_existing)
(assert (= true true)) ; stores_agree_low_fo_update_existing [untranslatable]

; val_rel_n_to_val_rel (matches Coq: Lemma val_rel_n_to_val_rel)
(assert (= true true)) ; val_rel_n_to_val_rel [untranslatable]

; val_rel_n_to_val_rel_any (matches Coq: Lemma val_rel_n_to_val_rel_any)
(assert (= true true)) ; val_rel_n_to_val_rel_any [untranslatable]

; env_rel_rho_closed (matches Coq: Lemma env_rel_rho_closed)
(assert (= true true)) ; env_rel_rho_closed [untranslatable]

; lam_closedness_contradiction (matches Coq: Lemma lam_closedness_contradiction)
(assert (= true true)) ; lam_closedness_contradiction [untranslatable]

; lam_closedness_contradiction2 (matches Coq: Lemma lam_closedness_contradiction2)
(assert (= true true)) ; lam_closedness_contradiction2 [untranslatable]

; rho_no_free_all_single (matches Coq: Lemma rho_no_free_all_single)
(assert (= true true)) ; rho_no_free_all_single [untranslatable]

; env_rel_closed_left (matches Coq: Lemma env_rel_closed_left)
(assert (= true true)) ; env_rel_closed_left [untranslatable]

; env_rel_closed_right (matches Coq: Lemma env_rel_closed_right)
(assert (= true true)) ; env_rel_closed_right [untranslatable]

; closed_except_subst_rho_shadow (matches Coq: Lemma closed_except_subst_rho_shadow)
(assert (= true true)) ; closed_except_subst_rho_shadow [untranslatable]

; subst_not_free (matches Coq: Lemma subst_not_free)
(assert (= true true)) ; subst_not_free [untranslatable]

; rho_shadow_id (matches Coq: Lemma rho_shadow_id)
(assert (= true true)) ; rho_shadow_id [untranslatable]

; rho_shadow_identity (matches Coq: Lemma rho_shadow_identity)
(assert (= true true)) ; rho_shadow_identity [untranslatable]

; subst_rho_identity (matches Coq: Lemma subst_rho_identity)
(assert (= true true)) ; subst_rho_identity [untranslatable]

; subst_rho_id (matches Coq: Lemma subst_rho_id)
(assert (= true true)) ; subst_rho_id [untranslatable]

; rho_shadow_single_eq (matches Coq: Lemma rho_shadow_single_eq)
(assert (= true true)) ; rho_shadow_single_eq [untranslatable]

; rho_shadow_single_id (matches Coq: Lemma rho_shadow_single_id)
(assert (= true true)) ; rho_shadow_single_id [untranslatable]

; subst_rho_single (matches Coq: Lemma subst_rho_single)
(assert (= true true)) ; subst_rho_single [untranslatable]

; rho_shadow_extend_same (matches Coq: Lemma rho_shadow_extend_same)
(assert (= true true)) ; rho_shadow_extend_same [untranslatable]

; rho_shadow_shadow_same (matches Coq: Lemma rho_shadow_shadow_same)
(assert (= true true)) ; rho_shadow_shadow_same [untranslatable]

; rho_shadow_shadow_comm (matches Coq: Lemma rho_shadow_shadow_comm)
(assert (= true true)) ; rho_shadow_shadow_comm [untranslatable]

; rho_shadow_extend_comm (matches Coq: Lemma rho_shadow_extend_comm)
(assert (= true true)) ; rho_shadow_extend_comm [untranslatable]

; rho_no_free_extend (matches Coq: Lemma rho_no_free_extend)
(assert (= true true)) ; rho_no_free_extend [untranslatable]

; rho_no_free_shadow (matches Coq: Lemma rho_no_free_shadow)
(assert (= true true)) ; rho_no_free_shadow [untranslatable]

; subst_rho_extend (matches Coq: Lemma subst_rho_extend)
(assert (= true true)) ; subst_rho_extend [untranslatable]

; env_rel_empty_n (matches Coq: Lemma env_rel_empty_n)
(assert (= true true)) ; env_rel_empty_n [untranslatable]

; env_rel_empty (matches Coq: Lemma env_rel_empty)
(assert (= true true)) ; env_rel_empty [untranslatable]

; env_rel_extend_n (matches Coq: Lemma env_rel_extend_n)
(assert (= true true)) ; env_rel_extend_n [untranslatable]

; env_rel_extend (matches Coq: Lemma env_rel_extend)
(assert (= true true)) ; env_rel_extend [untranslatable]

; multi_step_trans (matches Coq: Lemma multi_step_trans)
(assert (= true true)) ; multi_step_trans [untranslatable]

; multi_step_app1 (matches Coq: Lemma multi_step_app1)
(assert (= true true)) ; multi_step_app1 [untranslatable]

; multi_step_app2 (matches Coq: Lemma multi_step_app2)
(assert (= true true)) ; multi_step_app2 [untranslatable]

; multi_step_pair1 (matches Coq: Lemma multi_step_pair1)
(assert (= true true)) ; multi_step_pair1 [untranslatable]

; multi_step_pair2 (matches Coq: Lemma multi_step_pair2)
(assert (= true true)) ; multi_step_pair2 [untranslatable]

; multi_step_fst (matches Coq: Lemma multi_step_fst)
(assert (= true true)) ; multi_step_fst [untranslatable]

; multi_step_snd (matches Coq: Lemma multi_step_snd)
(assert (= true true)) ; multi_step_snd [untranslatable]

; multi_step_inl (matches Coq: Lemma multi_step_inl)
(assert (= true true)) ; multi_step_inl [untranslatable]

; multi_step_inr (matches Coq: Lemma multi_step_inr)
(assert (= true true)) ; multi_step_inr [untranslatable]

; multi_step_case (matches Coq: Lemma multi_step_case)
(assert (= true true)) ; multi_step_case [untranslatable]

; multi_step_if (matches Coq: Lemma multi_step_if)
(assert (= true true)) ; multi_step_if [untranslatable]

; multi_step_let (matches Coq: Lemma multi_step_let)
(assert (= true true)) ; multi_step_let [untranslatable]

; multi_step_classify (matches Coq: Lemma multi_step_classify)
(assert (= true true)) ; multi_step_classify [untranslatable]

; multi_step_prove (matches Coq: Lemma multi_step_prove)
(assert (= true true)) ; multi_step_prove [untranslatable]

; multi_step_require (matches Coq: Lemma multi_step_require)
(assert (= true true)) ; multi_step_require [untranslatable]

; multi_step_grant (matches Coq: Lemma multi_step_grant)
(assert (= true true)) ; multi_step_grant [untranslatable]

; multi_step_perform (matches Coq: Lemma multi_step_perform)
(assert (= true true)) ; multi_step_perform [untranslatable]

; multi_step_handle (matches Coq: Lemma multi_step_handle)
(assert (= true true)) ; multi_step_handle [untranslatable]

; multi_step_ref (matches Coq: Lemma multi_step_ref)
(assert (= true true)) ; multi_step_ref [untranslatable]

; multi_step_deref (matches Coq: Lemma multi_step_deref)
(assert (= true true)) ; multi_step_deref [untranslatable]

; multi_step_assign1 (matches Coq: Lemma multi_step_assign1)
(assert (= true true)) ; multi_step_assign1 [untranslatable]

; multi_step_assign2 (matches Coq: Lemma multi_step_assign2)
(assert (= true true)) ; multi_step_assign2 [untranslatable]

; exp_rel_of_val_rel (matches Coq: Lemma exp_rel_of_val_rel)
(assert (= true true)) ; exp_rel_of_val_rel [untranslatable]

; exp_rel_of_val_rel_step (matches Coq: Lemma exp_rel_of_val_rel_step)
(assert (= true true)) ; exp_rel_of_val_rel_step [untranslatable]

; exp_rel_of_val_rel_n (matches Coq: Lemma exp_rel_of_val_rel_n)
(assert (= true true)) ; exp_rel_of_val_rel_n [untranslatable]

; value_pair_inv (matches Coq: Lemma value_pair_inv)
(assert (= true true)) ; value_pair_inv [untranslatable]

; value_inl_inv (matches Coq: Lemma value_inl_inv)
(assert (= true true)) ; value_inl_inv [untranslatable]

; value_inr_inv (matches Coq: Lemma value_inr_inv)
(assert (= true true)) ; value_inr_inv [untranslatable]

; closed_expr_inl_inv (matches Coq: Lemma closed_expr_inl_inv)
(assert (= true true)) ; closed_expr_inl_inv [untranslatable]

; closed_expr_inr_inv (matches Coq: Lemma closed_expr_inr_inv)
(assert (= true true)) ; closed_expr_inr_inv [untranslatable]

; val_rel_n_prod_decompose (matches Coq: Lemma val_rel_n_prod_decompose)
(assert (= true true)) ; val_rel_n_prod_decompose [untranslatable]

; val_rel_n_of_first_order (matches Coq: Lemma val_rel_n_of_first_order)
(assert (= true true)) ; val_rel_n_of_first_order [untranslatable]

; val_rel_n_to_val_rel_fo (matches Coq: Lemma val_rel_n_to_val_rel_fo)
(assert (= true true)) ; val_rel_n_to_val_rel_fo [untranslatable]

; val_rel_at_type_to_val_rel_fo (matches Coq: Lemma val_rel_at_type_to_val_rel_fo)
(assert (= true true)) ; val_rel_at_type_to_val_rel_fo [untranslatable]

; has_type_pair_inv (matches Coq: Lemma has_type_pair_inv)
(assert (= true true)) ; has_type_pair_inv [untranslatable]

; val_rel_n_prod_fst (matches Coq: Lemma val_rel_n_prod_fst)
(assert (= true true)) ; val_rel_n_prod_fst [untranslatable]

; val_rel_n_prod_snd (matches Coq: Lemma val_rel_n_prod_snd)
(assert (= true true)) ; val_rel_n_prod_snd [untranslatable]

; val_rel_n_typing_ho (matches Coq: Lemma val_rel_n_typing_ho)
(assert (= true true)) ; val_rel_n_typing_ho [untranslatable]

; has_type_inl_inv (matches Coq: Lemma has_type_inl_inv)
(assert (= true true)) ; has_type_inl_inv [untranslatable]

; has_type_inr_inv (matches Coq: Lemma has_type_inr_inv)
(assert (= true true)) ; has_type_inr_inv [untranslatable]

; has_type_classify_inv (matches Coq: Lemma has_type_classify_inv)
(assert (= true true)) ; has_type_classify_inv [untranslatable]

; has_type_prove_inv (matches Coq: Lemma has_type_prove_inv)
(assert (= true true)) ; has_type_prove_inv [untranslatable]

; val_rel_n_prod_compose (matches Coq: Lemma val_rel_n_prod_compose)
(assert (= true true)) ; val_rel_n_prod_compose [untranslatable]

; val_rel_n_from_prod_fst (matches Coq: Lemma val_rel_n_from_prod_fst)
(assert (= true true)) ; val_rel_n_from_prod_fst [untranslatable]

; val_rel_n_from_prod_snd (matches Coq: Lemma val_rel_n_from_prod_snd)
(assert (= true true)) ; val_rel_n_from_prod_snd [untranslatable]

; val_rel_n_sum_inl (matches Coq: Lemma val_rel_n_sum_inl)
(assert (= true true)) ; val_rel_n_sum_inl [untranslatable]

; val_rel_n_sum_inr (matches Coq: Lemma val_rel_n_sum_inr)
(assert (= true true)) ; val_rel_n_sum_inr [untranslatable]

; val_rel_n_sum_decompose (matches Coq: Lemma val_rel_n_sum_decompose)
(assert (= true true)) ; val_rel_n_sum_decompose [untranslatable]

; val_rel_n_from_sum_inl (matches Coq: Lemma val_rel_n_from_sum_inl)
(assert (= true true)) ; val_rel_n_from_sum_inl [untranslatable]

; val_rel_n_from_sum_inr (matches Coq: Lemma val_rel_n_from_sum_inr)
(assert (= true true)) ; val_rel_n_from_sum_inr [untranslatable]

; val_rel_n_prod_fst_at (matches Coq: Lemma val_rel_n_prod_fst_at)
(assert (= true true)) ; val_rel_n_prod_fst_at [untranslatable]

; val_rel_n_prod_snd_at (matches Coq: Lemma val_rel_n_prod_snd_at)
(assert (= true true)) ; val_rel_n_prod_snd_at [untranslatable]

; closed_expr_unit (matches Coq: Lemma closed_expr_unit)
(assert (= true true)) ; closed_expr_unit [untranslatable]

; closed_expr_bool (matches Coq: Lemma closed_expr_bool)
(assert (= true true)) ; closed_expr_bool [untranslatable]

; closed_expr_int (matches Coq: Lemma closed_expr_int)
(assert (= true true)) ; closed_expr_int [untranslatable]

; closed_expr_string (matches Coq: Lemma closed_expr_string)
(assert (= true true)) ; closed_expr_string [untranslatable]

; closed_expr_loc (matches Coq: Lemma closed_expr_loc)
(assert (= true true)) ; closed_expr_loc [untranslatable]

; val_rel_unit (matches Coq: Lemma val_rel_unit)
(assert (= true true)) ; val_rel_unit [untranslatable]

; val_rel_bool (matches Coq: Lemma val_rel_bool)
(assert (= true true)) ; val_rel_bool [untranslatable]

; val_rel_n_bool_eq (matches Coq: Lemma val_rel_n_bool_eq)
(assert (= true true)) ; val_rel_n_bool_eq [untranslatable]

; val_rel_int (matches Coq: Lemma val_rel_int)
(assert (= true true)) ; val_rel_int [untranslatable]

; val_rel_n_classify (matches Coq: Lemma val_rel_n_classify)
(assert (= true true)) ; val_rel_n_classify [untranslatable]

; val_rel_n_prove (matches Coq: Lemma val_rel_n_prove)
(assert (= true true)) ; val_rel_n_prove [untranslatable]

; val_rel_string (matches Coq: Lemma val_rel_string)
(assert (= true true)) ; val_rel_string [untranslatable]

; val_rel_loc (matches Coq: Lemma val_rel_loc)
(assert (= true true)) ; val_rel_loc [untranslatable]

; fundamental_at_0 (matches Coq: Lemma fundamental_at_0)
(assert (= true true)) ; fundamental_at_0 [untranslatable]

; step_up_at_0 (matches Coq: Lemma step_up_at_0)
(assert (= true true)) ; step_up_at_0 [untranslatable]

; multi_step_preservation_aux (matches Coq: Lemma multi_step_preservation_aux)
(assert (= true true)) ; multi_step_preservation_aux [untranslatable]

; multi_step_preservation (matches Coq: Lemma multi_step_preservation)
(assert (= true true)) ; multi_step_preservation [untranslatable]

; has_type_level_irrelevant (matches Coq: Lemma has_type_level_irrelevant)
(assert (= true true)) ; has_type_level_irrelevant [untranslatable]

; store_wf_fresh_not_in_ty (matches Coq: Lemma store_wf_fresh_not_in_ty)
(assert (= true true)) ; store_wf_fresh_not_in_ty [untranslatable]

; store_rel_n_same_fresh (matches Coq: Lemma store_rel_n_same_fresh)
(assert (= true true)) ; store_rel_n_same_fresh [untranslatable]

; logical_relation (matches Coq: Theorem logical_relation)
(assert (= true true)) ; logical_relation [untranslatable]

; step_up_and_fundamental_mutual (matches Coq: Theorem step_up_and_fundamental_mutual)
(assert (= true true)) ; step_up_and_fundamental_mutual [untranslatable]

; val_rel_closed (matches Coq: Lemma val_rel_closed)
(assert (= true true)) ; val_rel_closed [untranslatable]

; env_rel_single (matches Coq: Lemma env_rel_single)
(assert (= true true)) ; env_rel_single [untranslatable]

; non_interference_stmt (matches Coq: Theorem non_interference_stmt)
(assert (= true true)) ; non_interference_stmt [untranslatable]

; subst_rho_declassify_dist (matches Coq: Lemma subst_rho_declassify_dist)
(assert (= true true)) ; subst_rho_declassify_dist [untranslatable]

; Verify all assertions are satisfiable
(check-sat)
(exit)
